p cnf 12 50 
-6 -2 -11 0
-2 -9 -8 0
4 11 -2 0
12 5 -10 0
2 -9 -11 0
-10 5 -6 0
5 4 12 0
-9 7 8 0
-1 7 3 0
1 -11 -7 0
-5 12 2 0
7 5 1 0
-11 -8 6 0
-4 -10 -11 0
-4 -3 -11 0
-4 -9 11 0
12 6 -4 0
-11 7 4 0
-4 -8 -1 0
-9 11 8 0
-9 -12 4 0
-7 6 9 0
9 1 12 0
7 -2 8 0
-8 7 12 0
8 4 7 0
-12 9 3 0
-9 10 5 0
10 8 1 0
8 -1 -12 0
6 2 -4 0
-5 6 12 0
4 -12 10 0
2 -1 9 0
10 -7 2 0
8 2 6 0
10 -5 -7 0
6 -8 -9 0
5 6 -11 0
1 4 5 0
4 6 -8 0
-12 5 -2 0
-1 4 6 0
12 4 11 0
3 -10 -6 0
-1 -10 12 0
-11 -1 5 0
-12 1 4 0
-12 -7 -2 0
-11 6 -7 0
